<instance format="XCSP3" type="CSP">
  <variables>
    <var id="x0"> 1 9 13..15 </var>
    <var id="x1"> 14 15 </var>
    <var id="x2"> 1 4 10 13 </var>
    <var id="x3"> 1 4 9 13 15 </var>
    <var id="x4"> 1 10 15 </var>
    <var id="x5"> 1 4 9 10 13 </var>
    <var id="x6"> 4 9 15 </var>
    <var id="x7"> 4 11 </var>
    <var id="x8"> 3..5 </var>
    <var id="x9"> 3..5 11 15 </var>
    <var id="x10"> 3 11 13 15 </var>
    <var id="x11"> 3..5 9 </var>
    <var id="x12"> 4 9 11 13 15 </var>
    <var id="x13"> 4 9 13 </var>
    <var id="x14"> 6 7 16 17 </var>
    <var id="x15"> 5 6 14 17 </var>
    <var id="x16"> 5 6 13 14 </var>
    <var id="x17"> 6 7 14 16 </var>
    <var id="x18"> 0 16 </var>
    <var id="x19"> 13 16 17 </var>
    <var id="x20"> 6 7 17 </var>
    <var id="x21"> 6 17 </var>
    <var id="x22"> 1 6 16 17 </var>
    <var id="x23"> 6 11 12 16 </var>
    <var id="x24"> 1 6 10..12 </var>
    <var id="x25"> 5 6 10 </var>
    <var id="x26"> 1 10..12 16 </var>
    <var id="x27"> 1 12 16 17 </var>
    <var id="x28"> 1 10 17 </var>
    <var id="x29"> 5 12 17 </var>
    <var id="x30"> 1 6 7 13 </var>
    <var id="x31"> 1 6 7 10 11 </var>
    <var id="x32"> 1 2 6 10 11 </var>
    <var id="x33"> 1 3 10 11 </var>
    <var id="x34"> 2 3 6 10 </var>
    <var id="x35"> 2 3 6 7 </var>
    <var id="x36"> 3 7 </var>
    <var id="x37"> 2 6 </var>
    <var id="x38"> 1 6 13 16 17 </var>
    <var id="x39"> 4 6 13 16 </var>
    <var id="x40"> 2 4 6 17 </var>
    <var id="x41"> 2 4 6 </var>
    <var id="x42"> 2 6 15 16 </var>
    <var id="x43"> 1 2 4 6 13 </var>
    <var id="x44"> 1 13 15..17 </var>
    <var id="x45"> 1 2 4 13 15 16 </var>
    <var id="x46"> 1 7 8 13 16 </var>
    <var id="x47"> 1 4 7 16 </var>
    <var id="x48"> 1 9 12 </var>
    <var id="x49"> 7 13 </var>
    <var id="x50"> 1 9 13 </var>
    <var id="x51"> 7 8 16 </var>
    <var id="x52"> 1 4 12 16 </var>
    <var id="x53"> 4 8 9 12 </var>
    <var id="x54"> 6 8 17 </var>
    <var id="x55"> 6 </var>
    <var id="x56"> 2 6 9 10 </var>
    <var id="x57"> 5 10 15 </var>
    <var id="x58"> 2 5 6 9 15 </var>
    <var id="x59"> 2 6 8 10 </var>
    <var id="x60"> 5 9 15 17 </var>
    <var id="x61"> 2 6 8 9 15 17 </var>
    <var id="x62"> 1 14 17 </var>
    <var id="x63"> 1 4 10 17 </var>
    <var id="x64"> 1 2 9 10 12 </var>
    <var id="x65"> 10 14 17 </var>
    <var id="x66"> 2 4 9 10 14 </var>
    <var id="x67"> 1 2 4 10 </var>
    <var id="x68"> 4 9 12 17 </var>
    <var id="x69"> 2 4 9 12 17 </var>
    <var id="x70"> 11 12 </var>
    <var id="x71"> 1 10..12 </var>
    <var id="x72"> 3 5 10 </var>
    <var id="x73"> 1 5 15 </var>
    <var id="x74"> 3 8 15 </var>
    <var id="x75"> 1 8 10 11 </var>
    <var id="x76"> 1 11 15 </var>
    <var id="x77"> 1 10 </var>
    <var id="x78"> 4 11 13 14 16 </var>
    <var id="x79"> 4 11 16 17 </var>
    <var id="x80"> 2 11 </var>
    <var id="x81"> 3 4 11 </var>
    <var id="x82"> 3 11 13 14 17 </var>
    <var id="x83"> 2 13 14 </var>
    <var id="x84"> 2 4 11 13 </var>
    <var id="x85"> 11 17 </var>
    <var id="x86"> 1 3 4 12 </var>
    <var id="x87"> 1 6 14 </var>
    <var id="x88"> 3 4 6 14 </var>
    <var id="x89"> 1 4 </var>
    <var id="x90"> 1 6 17 </var>
    <var id="x91"> 1 4 17 </var>
    <var id="x92"> 3 4 12 17 </var>
    <var id="x93"> 1 6..8 </var>
    <var id="x94"> 1 3 4 10 15 </var>
    <var id="x95"> 3 7 10 15 </var>
    <var id="x96"> 3 4 6 10 </var>
    <var id="x97"> 1 4 10 </var>
    <var id="x98"> 1 8 15 </var>
    <var id="x99"> 1 4 15 </var>
    <var id="x100"> 4 6 8 15 </var>
    <var id="x101"> 0 2 6 10 11 </var>
    <var id="x102"> 2 4 6 10 17 </var>
    <var id="x103"> 10 11 17 </var>
    <var id="x104"> 2 6 </var>
    <var id="x105"> 2 4 6 10 11 </var>
    <var id="x106"> 0 2 4 10 11 16 </var>
    <var id="x107"> 16 17 </var>
    <var id="x108"> 6 10 11 17 </var>
    <var id="x109"> 1 7 8 14 </var>
    <var id="x110"> 1 7 11 </var>
    <var id="x111"> 2 14 </var>
    <var id="x112"> 1 2 8 11 </var>
    <var id="x113"> 1 2 11 12 </var>
    <var id="x114"> 1 7 11 15 </var>
    <var id="x115"> 7 12 15 </var>
    <var id="x116"> 2 8 12 15 </var>
    <var id="x117"> 4 6 7 11 13 14 16 </var>
    <var id="x118"> 4 10 11 </var>
    <var id="x119"> 7 10 11 13 14 </var>
    <var id="x120"> 6 7 14 16 </var>
    <var id="x121"> 4 10 11 16 </var>
    <var id="x122"> 4 11 13 16 </var>
    <var id="x123"> 6 7 10 11 </var>
    <var id="x124"> 4 7 10 13 </var>
    <var id="x125"> 6 7 12 </var>
    <var id="x126"> 6 7 10 17 </var>
    <var id="x127"> 2 6 10 17 </var>
    <var id="x128"> 2 6 9 10 </var>
    <var id="x129"> 2 6 7 15 </var>
    <var id="x130"> 2 10 12 </var>
    <var id="x131"> 12 15 17 </var>
    <var id="x132"> 2 6 9 12 15 17 </var>
    <var id="x133"> 4 6 7 11 </var>
    <var id="x134"> 2 4 6 </var>
    <var id="x135"> 1 4 11 15 </var>
    <var id="x136"> 7 11 15 </var>
    <var id="x137"> 1 15 </var>
    <var id="x138"> 1 2 4 9 11 15 </var>
    <var id="x139"> 1 4 7 9 </var>
    <var id="x140"> 4 7 9 15 </var>
  </variables>
  <constraints>
    <group>
      <allDifferent> %... </allDifferent>
      <args> x0 x1 x2 x3 x4 x5 x6 </args>
      <args> x7 x8 x9 x10 x11 x12 x13 </args>
      <args> x14 x15 x16 x17 x18 x19 x20 x21 </args>
      <args> x22 x23 x24 x25 x26 x27 x28 x29 </args>
      <args> x30 x31 x32 x33 x34 x35 x36 x37 </args>
      <args> x38 x39 x40 x41 x42 x43 x44 x45 </args>
      <args> x46 x47 x48 x49 x50 x51 x52 x53 </args>
      <args> x54 x55 x56 x57 x58 x59 x60 x61 </args>
      <args> x62 x63 x64 x65 x66 x67 x68 x69 </args>
      <args> x70 x71 x72 x73 x74 x75 x76 x77 </args>
      <args> x78 x79 x80 x81 x82 x83 x84 x85 </args>
      <args> x86 x87 x88 x89 x90 x91 x92 </args>
      <args> x93 x94 x95 x96 x97 x98 x99 x100 </args>
      <args> x101 x102 x103 x104 x105 x106 x107 x108 </args>
      <args> x109 x110 x111 x112 x113 x114 x115 x116 </args>
      <args> x117 x118 x119 x120 x121 x122 x123 x124 </args>
      <args> x125 x126 x127 x128 x129 x130 x131 x132 </args>
      <args> x133 x134 x135 x136 x137 x138 x139 x140 </args>
      <args> x22 x30 x38 x46 x54 x62 x93 x109 </args>
      <args> x23 x39 x55 x70 x78 x117 x125 x133 </args>
      <args> x7 x14 x31 x47 x63 x79 x110 x126 </args>
      <args> x24 x32 x48 x56 x64 x71 x80 x101 </args>
      <args> x8 x15 x40 x72 x102 x111 x127 x134 </args>
      <args> x9 x33 x57 x81 x86 x94 x118 x135 </args>
      <args> x10 x49 x65 x82 x95 x103 x119 x136 </args>
      <args> x0 x16 x50 x58 x73 x83 x87 x104 </args>
      <args> x11 x25 x34 x41 x66 x88 x96 x128 </args>
      <args> x1 x17 x35 x42 x51 x74 x120 x129 </args>
      <args> x2 x43 x59 x67 x75 x84 x105 x112 </args>
      <args> x18 x26 x52 x97 x106 x113 x121 x130 </args>
      <args> x19 x27 x44 x98 x107 x131 x137 </args>
      <args> x3 x12 x45 x76 x89 x99 x122 x138 </args>
      <args> x4 x20 x85 x90 x108 x114 x123 </args>
      <args> x5 x13 x28 x77 x91 x124 x139 </args>
      <args> x6 x29 x36 x60 x68 x92 x115 x140 </args>
      <args> x21 x37 x53 x61 x69 x100 x116 x132 </args>
    </group>
  </constraints>
</instance>

